#######################################
### Exact MIP solver for the HHCRSP ###
#######################################
-- Instance file: new-instances/HHCRSP_400_80_79_1.0_C_R.txt
-- Max threads: 4
-- Time limit: 999999 seconds
-- Use initial solution: No
Trivial flow violations prevented generating 2809697 variables.
Version identifier: 20.1.0.0 | 2020-11-10 | 9bedb6d68
CPXPARAM_Threads                                 4
CPXPARAM_Emphasis_Memory                         1
CPXPARAM_TimeLimit                               999999
Tried aggregator 1 time.
Presolve has eliminated 85344 rows and 19286 columns...
LP Presolve eliminated 85344 rows and 19286 columns.
Reduced LP has 3115746 rows, 2954627 columns, and 89482092 nonzeros.
Presolve time = 89.22 sec. (18912.10 ticks)
Compression time = 20.42 sec. (5.89 ticks)
Compression reduced 1289.59 MB A matrix to 387.77 MB
Symmetry aggregator did 5327450 additional substitutions.
Elapsed time = 111.07 sec. (19727.84 ticks, 1 iterations)

Iteration log . . .
Iteration:     1   Dual objective     =             0.000000
Iteration:  1806   Dual objective     =           520.000000

Dual crossover.
  Dual:  Fixing 3630 variables.
     3629 DMoves:  Infeasibility  3.32323058e-12  Objective  5.21666667e+02
        0 DMoves:  Infeasibility  2.16487939e-12  Objective  5.21666667e+02
  Dual:  Pushed 75, exchanged 3555.
  Primal:  Fixing 2435 variables.
     2434 PMoves:  Infeasibility  8.32667268e-17  Objective  5.21666667e+02
        0 PMoves:  Infeasibility  2.91433544e-16  Objective  5.21666667e+02
  Primal:  Pushed 2217, exchanged 218.

Solution status from MIP model:
-- Processing time: 152.862 sec.
-- Memory used: 2005.35 MB
-- Best bound: inf
-- Obj value: 521.667
-- Gap: inf%
-- Total distance: 1565
-- Total tardiness: 0
-- Largest tardiness: 0
